c
c Generated WCNF file
c
p wcnf 46 199 21140
21140 10 0
21140 -11 1 0
21140 -11 2 0
21140 11 -1 -2 0
21140 -12 1 0
21140 -12 3 0
21140 12 -1 -3 0
21140 -13 1 0
21140 -13 4 0
21140 13 -1 -4 0
21140 -14 1 0
21140 -14 5 0
21140 14 -1 -5 0
21140 -15 1 0
21140 -15 6 0
21140 15 -1 -6 0
21140 -16 1 0
21140 -16 7 0
21140 16 -1 -7 0
21140 -17 1 0
21140 -17 8 0
21140 17 -1 -8 0
21140 -18 1 0
21140 -18 9 0
21140 18 -1 -9 0
21140 -19 2 0
21140 -19 3 0
21140 19 -2 -3 0
21140 -20 2 0
21140 -20 4 0
21140 20 -2 -4 0
21140 -21 2 0
21140 -21 5 0
21140 21 -2 -5 0
21140 -22 2 0
21140 -22 6 0
21140 22 -2 -6 0
21140 -23 2 0
21140 -23 7 0
21140 23 -2 -7 0
21140 -24 2 0
21140 -24 8 0
21140 24 -2 -8 0
21140 -25 2 0
21140 -25 9 0
21140 25 -2 -9 0
21140 -26 3 0
21140 -26 4 0
21140 26 -3 -4 0
21140 -27 3 0
21140 -27 5 0
21140 27 -3 -5 0
21140 -28 3 0
21140 -28 6 0
21140 28 -3 -6 0
21140 -29 3 0
21140 -29 7 0
21140 29 -3 -7 0
21140 -30 3 0
21140 -30 8 0
21140 30 -3 -8 0
21140 -31 3 0
21140 -31 9 0
21140 31 -3 -9 0
21140 -32 4 0
21140 -32 5 0
21140 32 -4 -5 0
21140 -33 4 0
21140 -33 6 0
21140 33 -4 -6 0
21140 -34 4 0
21140 -34 7 0
21140 34 -4 -7 0
21140 -35 4 0
21140 -35 8 0
21140 35 -4 -8 0
21140 -36 4 0
21140 -36 9 0
21140 36 -4 -9 0
21140 -37 5 0
21140 -37 6 0
21140 37 -5 -6 0
21140 -38 5 0
21140 -38 7 0
21140 38 -5 -7 0
21140 -39 5 0
21140 -39 8 0
21140 39 -5 -8 0
21140 -40 5 0
21140 -40 9 0
21140 40 -5 -9 0
21140 -41 6 0
21140 -41 7 0
21140 41 -6 -7 0
21140 -42 6 0
21140 -42 8 0
21140 42 -6 -8 0
21140 -43 6 0
21140 -43 9 0
21140 43 -6 -9 0
21140 -44 7 0
21140 -44 8 0
21140 44 -7 -8 0
21140 -45 7 0
21140 -45 9 0
21140 45 -7 -9 0
21140 -46 8 0
21140 -46 9 0
21140 46 -8 -9 0
14252 1 0
21130 -1 0
22550 11 0
21130 -11 0
25284 12 0
21130 -12 0
22356 13 0
21130 -13 0
23692 14 0
21130 -14 0
15924 15 0
21130 -15 0
22208 16 0
21130 -16 0
21174 17 0
21130 -17 0
16906 18 0
21130 -18 0
32655 2 0
21130 -2 0
21870 19 0
21130 -19 0
23128 20 0
21130 -20 0
17332 21 0
21130 -21 0
18786 22 0
21130 -22 0
19556 23 0
21130 -23 0
19254 24 0
21130 -24 0
25546 25 0
21130 -25 0
10467 3 0
21130 -3 0
22174 26 0
21130 -26 0
17434 27 0
21130 -27 0
23042 28 0
21130 -28 0
19958 29 0
21130 -29 0
20588 30 0
21130 -30 0
25642 31 0
21130 -31 0
11855 4 0
21130 -4 0
21292 32 0
21130 -32 0
22904 33 0
21130 -33 0
21916 34 0
21130 -34 0
24344 35 0
21130 -35 0
19306 36 0
21130 -36 0
23671 5 0
21130 -5 0
20986 37 0
21130 -37 0
20960 38 0
21130 -38 0
21940 39 0
21130 -39 0
22570 40 0
21130 -40 0
30519 6 0
21130 -6 0
21410 41 0
21130 -41 0
21124 42 0
21130 -42 0
17386 43 0
21130 -43 0
22091 7 0
21130 -7 0
20020 44 0
21130 -44 0
22570 45 0
21130 -45 0
21477 8 0
21130 -8 0
23338 46 0
21130 -46 0
18250 9 0
21130 -9 0
